\ This file has been generated by DOcplex
\ ENCODING=ISO-8859-1
\Problem name: MaximumIndependentSet

Minimize
 obj: - x_0 - x_1 - x_2 - x_3 - x_4 - x_5 - x_6 - x_7 - x_8 - x_9 - x_10 - x_11
      - x_12 - x_13 - x_14 - x_15 + [ 34 x_1*x_2 + 34 x_1*x_4 + 34 x_2*x_4
      + 34 x_2*x_8 + 34 x_3*x_5 + 34 x_3*x_6 + 34 x_3*x_9 + 34 x_4*x_8
      + 34 x_5*x_6 + 34 x_5*x_9 + 34 x_5*x_10 + 34 x_6*x_9 + 34 x_6*x_10
      + 34 x_6*x_12 + 34 x_7*x_11 + 34 x_7*x_13 + 34 x_9*x_10 + 34 x_9*x_12
      + 34 x_10*x_12 + 34 x_11*x_13 + 34 x_11*x_14 + 34 x_13*x_14 ]/2
Subject To

Bounds
 0 <= x_0 <= 1
 0 <= x_1 <= 1
 0 <= x_2 <= 1
 0 <= x_3 <= 1
 0 <= x_4 <= 1
 0 <= x_5 <= 1
 0 <= x_6 <= 1
 0 <= x_7 <= 1
 0 <= x_8 <= 1
 0 <= x_9 <= 1
 0 <= x_10 <= 1
 0 <= x_11 <= 1
 0 <= x_12 <= 1
 0 <= x_13 <= 1
 0 <= x_14 <= 1
 0 <= x_15 <= 1

Binaries
 x_0 x_1 x_2 x_3 x_4 x_5 x_6 x_7 x_8 x_9 x_10 x_11 x_12 x_13 x_14 x_15
End
